
Gurobi 8.1.1 (linux64) logging started Tue Oct 29 00:57:46 2019

Academic license - for non-commercial use only

Gurobi 8.1.1 (linux64) logging started Tue Oct 29 00:58:50 2019

Academic license - for non-commercial use only

Gurobi 8.1.1 (linux64) logging started Tue Oct 29 01:03:30 2019

Academic license - for non-commercial use only

Gurobi 8.1.1 (linux64) logging started Tue Oct 29 01:04:20 2019

Academic license - for non-commercial use only

Gurobi 8.1.1 (linux64) logging started Tue Oct 29 01:07:49 2019

Academic license - for non-commercial use only

Gurobi 8.1.1 (linux64) logging started Tue Oct 29 01:12:13 2019

Academic license - for non-commercial use only

Gurobi 8.1.1 (linux64) logging started Tue Oct 29 01:12:22 2019

Academic license - for non-commercial use only

Gurobi 8.1.1 (linux64) logging started Tue Oct 29 01:13:20 2019

Academic license - for non-commercial use only

Gurobi 8.1.1 (linux64) logging started Tue Oct 29 01:16:47 2019

Academic license - for non-commercial use only
